(set-info :source |printed by MathSAT|)
(declare-fun call_Sofar.flby () Bool)
(declare-fun call__PRODUCER_CONSUMMER_.o1 () Int)
(declare-fun call_Sofar.Sofar () Bool)
(declare-fun param_etat1 () Bool)
(declare-fun call__PRODUCER_CONSUMMER_.ite5 () Int)
(declare-fun call__PRODUCER_CONSUMMER_.flby () Int)
(declare-fun call__PRODUCER_CONSUMMER_.flby5 () Int)
(declare-fun call__PRODUCER_CONSUMMER_.ite4 () Int)
(declare-fun call_First2.First () Int)
(declare-fun call_First.flby () Int)
(declare-fun a () Int)
(declare-fun call__PRODUCER_CONSUMMER_.b () Int)
(declare-fun call__PRODUCER_CONSUMMER_.ite9 () Int)
(declare-fun call__PRODUCER_CONSUMMER_.flby4 () Int)
(declare-fun _OK_ () Bool)
(declare-fun param_etat3 () Bool)
(declare-fun call__PRODUCER_CONSUMMER_.ite11 () Int)
(declare-fun o2 () Int)
(declare-fun call__PRODUCER_CONSUMMER_.i () Int)
(declare-fun call__PRODUCER_CONSUMMER_.ite10 () Int)
(declare-fun param_etat2 () Bool)
(declare-fun call_First.First () Int)
(declare-fun b () Int)
(declare-fun call__PRODUCER_CONSUMMER_.o2 () Int)
(declare-fun call__PRODUCER_CONSUMMER_.flby2 () Int)
(declare-fun call_First2.flby () Int)
(declare-fun call__PRODUCER_CONSUMMER_.ite7 () Int)
(declare-fun call__PRODUCER_CONSUMMER_.a () Int)
(declare-fun call__PRODUCER_CONSUMMER_.ite2 () Int)
(declare-fun i () Int)
(declare-fun call__PRODUCER_CONSUMMER_.ite6 () Int)
(declare-fun call__PRODUCER_CONSUMMER_.ite8 () Int)
(declare-fun o1 () Int)
(declare-fun call__PRODUCER_CONSUMMER_.ite () Int)
(declare-fun call__PRODUCER_CONSUMMER_.ite3 () Int)
(declare-fun call__PRODUCER_CONSUMMER_.flby3 () Int)
(declare-fun env () Bool)
(declare-fun param_a_init () Int)
(declare-fun flby () Bool)
(define-fun .def_460 () Bool (= call_First2.flby call_First2.First))
(define-fun .def_458 () Bool (= call_First.flby call_First.First))
(define-fun .def_456 () Bool (= call_Sofar.flby call_Sofar.Sofar))
(define-fun .def_454 () Bool (= call__PRODUCER_CONSUMMER_.flby5 call__PRODUCER_CONSUMMER_.o2))
(define-fun .def_452 () Bool (= call__PRODUCER_CONSUMMER_.flby4 call__PRODUCER_CONSUMMER_.o1))
(define-fun .def_450 () Bool (= call__PRODUCER_CONSUMMER_.a call__PRODUCER_CONSUMMER_.flby3))
(define-fun .def_448 () Bool (= call__PRODUCER_CONSUMMER_.flby2 call__PRODUCER_CONSUMMER_.b))
(define-fun .def_446 () Bool (= call__PRODUCER_CONSUMMER_.flby call__PRODUCER_CONSUMMER_.i))
(define-fun .def_442 () Bool (= call__PRODUCER_CONSUMMER_.ite6 call__PRODUCER_CONSUMMER_.ite4))
(define-fun .def_350 () Bool (not param_etat2))
(define-fun .def_443 () Bool (or .def_350 .def_442))
(define-fun .def_439 () Bool (= call__PRODUCER_CONSUMMER_.ite6 call__PRODUCER_CONSUMMER_.ite5))
(define-fun .def_440 () Bool (or param_etat2 .def_439))
(define-fun .def_444 () Bool (and .def_440 .def_443))
(define-fun .def_434 () Bool (= call__PRODUCER_CONSUMMER_.ite7 call__PRODUCER_CONSUMMER_.ite3))
(define-fun .def_341 () Bool (not param_etat1))
(define-fun .def_435 () Bool (or .def_341 .def_434))
(define-fun .def_431 () Bool (= call__PRODUCER_CONSUMMER_.ite7 call__PRODUCER_CONSUMMER_.ite6))
(define-fun .def_432 () Bool (or param_etat1 .def_431))
(define-fun .def_436 () Bool (and .def_432 .def_435))
(define-fun .def_424 () Bool (<= 10 call_First2.First))
(define-fun .def_425 () Bool (not .def_424))
(define-fun .def_420 () Bool (<= call_First.First 0))
(define-fun .def_421 () Bool (not .def_420))
(define-fun .def_418 () Bool (and flby call_Sofar.Sofar))
(define-fun .def_422 () Bool (and .def_418 .def_421))
(define-fun .def_426 () Bool (and .def_422 .def_425))
(define-fun .def_427 () Bool (= env .def_426))
(define-fun .def_415 () Bool (= o2 call__PRODUCER_CONSUMMER_.o2))
(define-fun .def_412 () Bool (= o1 call__PRODUCER_CONSUMMER_.o1))
(define-fun .def_409 () Bool (= call__PRODUCER_CONSUMMER_.a a))
(define-fun .def_406 () Bool (= b call__PRODUCER_CONSUMMER_.b))
(define-fun .def_402 () Bool (= i call__PRODUCER_CONSUMMER_.i))
(define-fun .def_397 () Bool (<= 0 o1))
(define-fun .def_396 () Bool (not env))
(define-fun .def_398 () Bool (or .def_396 .def_397))
(define-fun .def_399 () Bool (= _OK_ .def_398))
(define-fun .def_403 () Bool (and .def_399 .def_402))
(define-fun .def_407 () Bool (and .def_403 .def_406))
(define-fun .def_410 () Bool (and .def_407 .def_409))
(define-fun .def_413 () Bool (and .def_410 .def_412))
(define-fun .def_416 () Bool (and .def_413 .def_415))
(define-fun .def_428 () Bool (and .def_416 .def_427))
(define-fun .def_437 () Bool (and .def_428 .def_436))
(define-fun .def_445 () Bool (and .def_437 .def_444))
(define-fun .def_447 () Bool (and .def_445 .def_446))
(define-fun .def_449 () Bool (and .def_447 .def_448))
(define-fun .def_451 () Bool (and .def_449 .def_450))
(define-fun .def_453 () Bool (and .def_451 .def_452))
(define-fun .def_455 () Bool (and .def_453 .def_454))
(define-fun .def_457 () Bool (and .def_455 .def_456))
(define-fun .def_459 () Bool (and .def_457 .def_458))
(define-fun .def_461 () Bool (and .def_459 .def_460))
(define-fun .def_392 () Bool (= param_a_init call_First2.flby))
(define-fun .def_389 () Bool (= param_a_init call_First.flby))
(define-fun .def_383 () Bool (<= o2 32767))
(define-fun .def_380 () Bool (<= o1 32767))
(define-fun .def_377 () Bool (and param_etat2 param_etat3))
(define-fun .def_378 () Bool (not .def_377))
(define-fun .def_381 () Bool (and .def_378 .def_380))
(define-fun .def_384 () Bool (and .def_381 .def_383))
(define-fun .def_386 () Bool (= .def_384 call_Sofar.flby))
(define-fun .def_375 () Bool (= call__PRODUCER_CONSUMMER_.flby5 0))
(define-fun .def_372 () Bool (= call__PRODUCER_CONSUMMER_.flby4 0))
(define-fun .def_369 () Bool (= param_a_init call__PRODUCER_CONSUMMER_.flby3))
(define-fun .def_365 () Bool (= call__PRODUCER_CONSUMMER_.flby2 0))
(define-fun .def_362 () Bool (= call__PRODUCER_CONSUMMER_.flby call__PRODUCER_CONSUMMER_.a))
(define-fun .def_357 () Bool (= call__PRODUCER_CONSUMMER_.ite11 call__PRODUCER_CONSUMMER_.ite10))
(define-fun .def_354 () Bool (not param_etat3))
(define-fun .def_358 () Bool (or .def_354 .def_357))
(define-fun .def_348 () Bool (= call__PRODUCER_CONSUMMER_.ite9 call__PRODUCER_CONSUMMER_.ite8))
(define-fun .def_351 () Bool (or .def_348 .def_350))
(define-fun .def_344 () Bool (= .def_341 flby))
(define-fun .def_339 () Bool (= call__PRODUCER_CONSUMMER_.ite2 call__PRODUCER_CONSUMMER_.ite))
(define-fun .def_342 () Bool (or .def_339 .def_341))
(define-fun .def_345 () Bool (and .def_342 .def_344))
(define-fun .def_352 () Bool (and .def_345 .def_351))
(define-fun .def_359 () Bool (and .def_352 .def_358))
(define-fun .def_363 () Bool (and .def_359 .def_362))
(define-fun .def_366 () Bool (and .def_363 .def_365))
(define-fun .def_370 () Bool (and .def_366 .def_369))
(define-fun .def_373 () Bool (and .def_370 .def_372))
(define-fun .def_376 () Bool (and .def_373 .def_375))
(define-fun .def_387 () Bool (and .def_376 .def_386))
(define-fun .def_390 () Bool (and .def_387 .def_389))
(define-fun .def_393 () Bool (and .def_390 .def_392))
(define-fun .def_462 () Bool (and .def_393 .def_461))
(assert .def_462)
